
 102   30
  10   10   10   10   10   10   10   10   10   10   10   10   10   10   10   10   10   10   10   10   10   10   10   10   10   10   10   10   10   10

   0   0   0   0   0   0   0   0   0   0   0   0   0   0   0   0   0   0   0   0   0   0   0   0   0   0   0   0   0   0   0  29 2 3 4 5 6 7 8 9 10 11 12 13 14 16 17 18 19 20 21 22 23 24 25 27 28 33 41 43 44 
   1   0   1   0   0   0   0   0   0   0   0   0   0   0   0   0   0   0   1   0   0   0   0   0   0   0   0   0   5   0   0   9 100 71 58 54 51 50 48 47 15 
   9   0   0   0   2   0   0   0   0   0   0   0   0   1   1   0   0   0   0   0   2   0   1   0   0   0   0   0   0   0   1  14 101 99 97 96 95 70 66 64 62 61 51 39 36 31 
   9   0   0   0   0   1   0   0   1   0   0   0   1   0   0   0   0   1   0   0   4   0   0   0   0   0   0   0   0   1   0  15 100 96 95 93 91 69 65 64 63 59 57 54 53 47 30 
   5   0   0   0   0   0   0   0   0   0   0   0   0   0   0   0   0   0   0   0  10   1   0   0   1   0   0   1   0   0   0  15 100 98 97 96 95 89 83 71 70 64 62 58 52 37 31 
   2   0   0   0   0   7   0   0   0   0   1   0   0   0   0   0   0   0   0   0   0   5   9   0   0   0   0   0   5   0   0  13 100 96 89 86 69 66 65 64 62 59 54 52 26 
   6   0   0   1   0   0   4   0   0   0   0   0   0   5   0   0   0   5   0   0   0   0   0   0   0   0   2   0   0   0   4   9 70 69 57 56 48 47 42 38 32 
   5   0   0   0   0   4   0   0   0   0   0   0   0   0   0   0   1   0   0   0   0   0   0   0   0   0   0   0   5   0   0   8 96 66 64 57 48 47 31 29 
   4   0   0   8   0   0   0   0   0   0   0   0   0   0   0   1   0   0   0   0   2   0   0   0   0   0   0   0   0   0   0  17 99 95 93 92 71 70 69 66 65 64 63 57 56 51 49 48 47 
   6   0   0   0   0   0   0   0   4   0   0   0   7   0   0  10   0   0   6   0   0   0   0   0   0   0   0   0   0   0   0  15 101 100 99 98 97 96 95 89 83 71 70 63 62 59 31 
   2   0   0   0   0   0   3   0   0   1   0   0   0   0   0   0   0   7   0   0   0   3   0   0   8   0   0   0   0   0   6  10 101 99 96 91 65 62 57 42 35 30 
   7   0   0   0   0   0   0   0   0   0   0   1   6   0   0   0   0   0   0   1   0   0   0   0   9   0   2   0   7   8   0   7 101 100 97 64 59 34 31 
   4   0   0   0   7   0   0   0   0   0   0   0   0   0   0   0   0   0   2   0   0   0   0   0   9   0   0   5   0   0   0  13 99 96 93 91 80 70 69 65 64 62 57 47 30 
   1   0   0   0   0   0   6   0   9   0   0   0   6   0   0   0   0   0   0   0   0   0   0   0   0   0   0   0   0   6  10  18 100 99 97 96 95 92 88 87 83 71 69 64 62 59 52 49 45 37 
   7   0   0   7   0   0   6   6   0   0   0   0   7   0   0   0   4   0   0   0   0   8   0   0   0   0   0   0   0   0   0  11 99 98 96 95 89 83 70 66 62 59 31 
   6   0   0   0   0   6   0   0   0   0   0   0   0   0   0   0   0   5   0   0   0   0   0   0   5   1   0   0   4   0   5  11 96 95 91 90 71 56 55 47 46 42 40 
   3   3   0   0   0   0   0   3   0   0   0   0   0   0   0   4   0   0   0   0   0   0   0   0   0   0   0   0   0   0   0  22 100 99 97 96 95 91 90 89 87 86 84 80 79 77 70 65 64 63 61 57 56 54 
   9   0   0   0   0   6   0   0   6   0   0   0   0   0   0   0   0   0   0   0   0   0   0   0   0   0   0   0   0   0   0   8 99 98 97 89 62 59 54 31 
   1   0   0   0   6   0   5   0   0   0   0   0   0  10   0   0   0   0   0   0   0   0   0   0   0   0   0   5   0   0   0  14 101 97 96 95 91 89 84 79 62 61 57 55 54 35 
   4   0   0   5   6   0   5   0   0   0   0   0   0   0   0   7   8   0   0   0   0   0   0   0   0   0   0   0   0   0   0  14 97 96 95 91 89 84 83 71 70 62 61 59 55 35 
   9   0   0   0   0   0   0   0   7   0   0   0   0   7   0  10   0   0   0   0   0   0   0   0   0   3   9   0   0   0   0   8 98 96 95 89 83 71 62 31 
   8   0   0   0   0   0   0   4   0   0   0   0   0   0   0   0   0   0   0   0   0   0   0   0   0   0   0   0   0   5   0  11 97 95 88 85 83 69 63 59 55 46 45 
   4   0   0   0   0   0   0   0   0   0   8   0   0   0   0   0   0   8   0   0   0   9   0   0   0   0   0   0   0   0  10  11 98 96 95 91 78 69 66 56 55 48 42 
   4   0   0   0   0   0   0   0   0   0   0   0   6   3   0   0   0   0   0   6   0   0   0   0   0   0   0   0   0   0   0  19 100 98 96 95 93 92 91 88 87 86 85 83 82 80 76 62 61 60 45 
   9   0   0   0   0   0   0   0   0   0   0   0   0   4   0   0   5   0   0   0   0   0   0   0   0   0   0   0   0   0   0  13 101 100 96 92 87 86 81 70 69 64 59 57 37 
   9   0   0   0   0   0   0   0   0   0   0   0   9   0   0   5   0   0   7   5   5   0   5   0   0   0   0   0  10   0   0  16 99 95 94 93 91 88 84 80 78 77 71 70 61 57 56 55 
  10   0   6   0   0   0   0   0   6   0   0   0   0   0   8   0   0   9  10   0   0   0   0   0   0   0   0   6   0   0   0  15 100 98 97 95 94 91 90 89 87 86 85 77 61 57 38 
   4   0   0   0   6   0   0   0   0   0   0   0   0   0   0   0   0   0   0   0   0   0   0   1   0   0   0  10   0   0   0  18 101 99 96 95 93 90 89 87 81 79 77 70 68 65 64 61 59 57 
   5   0   0   0   0   0   0   0   0   0   0   5   0   0   0   0   0   0   0   0   0   3   5   0   0   0   0   6   0   0   0  19 99 98 97 95 93 91 87 86 84 83 82 81 80 79 78 77 69 61 58 
   7   0   0   0   7   0   5   0   0   0   0   0   0   0   0   0   0   0   0   0   0   0   0   0   0   0   0   0   0   9   0  10 98 97 90 89 88 78 61 56 55 48 
   8   6   0   0   0   0   0   0   0   2   0   0   0   0   0   0   5   0   0   6   0   0   0   0   0   0   0   3   0   4   0   7 94 91 84 79 56 55 35 
   4   0   0   0   0   6   0   0   0   0   0   0   0   0   0   0   8   0   0   5   0   0   0   0   0   0   0   0   4  10   0  20 100 99 95 93 92 91 90 89 88 86 85 84 83 79 78 77 76 66 61 59 
   7   0   0   0   0   8   0   0   0   0   0   0   0   0   0   0   0   0   0   0   8   0   0   0   0   0   6   0   8   0   6   8 94 89 88 86 78 69 56 37 
   9   0   0   0   0   9   0   0   0   0   0   0   0   0   0   0   0   0   0   6   0   0   0   0   0   5   0   6   0   0   0  17 98 96 95 91 89 88 85 84 83 80 79 77 73 70 67 62 61 
   9   0   8   6   0   0   0   0   0   0   0   8   0   0   0   0   0   0   0   0   0   0   0  10   0   0   0   0   8   2   0  16 93 92 88 86 85 82 81 80 78 77 76 75 74 73 72 69 
   3   0   0   0   0   0   0   0   0   7   0   9   0   0   0   0   0   0   0   0   9   0   0   0   0   0   0   0   0   0   0  15 98 94 92 91 89 87 86 82 81 77 76 75 74 69 67 
   8   0   0   0   0   0  10   9   0   0   0   0   0   0   0   0   0   0   8   0   0   0   0   0   0   0   0   0   0   0   0  12 93 91 85 84 82 80 79 77 76 68 67 61 
   5   0   0   0   0   0   0   4   0   0   4   6   0   0   0   0   0   0   0   0   7   0   9   3   0   0   0   0   0   0   0  12 96 83 81 80 79 78 76 75 74 73 67 65 
  10   0   0   9   0   0   0   0   0   0  10   0   0   0   0   0   0   0   0   0   0   4   0   0   8   0   0   0   0   0   0  11 92 91 87 83 82 78 75 74 71 68 67 
   5   0   0   0   0   0   0   0   0   5   0   0   0   0   0   0   0   0   0   0   0   0   0   0   0   0   0   0   0   3   0  10 99 98 97 84 81 80 78 68 67 61 
   5   0   0   0   0   4   0   0   0   0   0   0   0   0   0   7   0   0   0   0   0   0   0   0   0   0   0   0   0   0   0  12 101 97 95 87 84 81 80 79 78 74 73 70 
   3   0   0   0   0   0   0   5   0   0   0   0   5   0   6   7   0   8  10   0   0   0   0   7   0   0   0   0   9   0   0   9 88 83 82 77 75 74 68 67 63 
   6   0   0   0   0   0   0   0   0   0   0   0   0   0   0   0   0   0   0   0   0   0   0   0   0   0   0   0   0   0   0   9 97 96 94 93 89 85 83 77 59 
   8   0   0   0   0   0   0   5   0   0   0   0   0   0   0   0   0   0   0   0   0   0   0   0   0   0   0   9   0   0   0   6 89 85 77 76 62 57 
   8   7   0   0   0   0   0   0   0   0   0   0   0   0   0   4   0   0   0   0   0   0   0   0   0   0   0   8   9   0   0  11 90 89 84 81 79 78 77 75 74 73 67 
   7   0   0   0   7   0   0   0   6   0   0   0   0   0   0   0   0   0   0   0   0   0   0   0   8   0   0   0   0   0   0   9 99 86 79 78 77 76 73 67 61 
   5   0   0   0   0   0   0   0   0   0   9   0   0   0   0   0   0   0   0   0   0   0   0   0   0   8   0   0   0   0   0   8 97 94 89 87 84 76 67 61 
   1   0   0   0   0   0   7   0   0   0   0   0   0   0   0   0   0   0   0   0   0   0   0   0   0   0   0   0   0   0   0   9 87 86 84 83 79 77 74 72 68 
   9   0   0   8   0   0   0   6   3   0   0   0   5   0   0   0   0   0   0   0   0   0   0   0   0   0   0   0   0   7   0   7 89 86 82 78 73 67 61 
   3   0   0   8   0   0   0   0   0   0   0   0   0   0   0   0   0   0   0  10   6   7   0   0   0   0  10   0   0   0   0   6 91 86 82 79 75 59 
  10   0   0   0   0   9   0   0   0   0   0   0   0   0   0   0   0   0   0   0   0   0   0   0   0   0   0   0   0   0   0   9 98 89 87 86 85 77 76 73 72 
   4   0   8   0   0   0   0   0   0   0   0   0   0   0   0   0   5   5   0   6   0   0   0   0   0   0   0   0   0   0   0   9 85 84 80 79 78 77 75 73 72 
   5   0   0   0   0   0   0   0   0   0   0   0   0   6   0   0   0   0   0   0   0   0   0   0   0   3   0   0   7   0   0   7 94 84 82 80 77 74 67 
   5   0   0   0   0   0   0   0   0   4   0   0  10   0   0   0   0   0   0   0   0   0   0   0   0   0   0   0   0   0   8   6 83 81 76 74 68 67 
   2   0   0   0   0   0   0   0   0   0   0   0   0   0   0   0   0   0   7   0  10   0   0   0   0   9   0   0   0   6   0   6 92 87 82 81 76 68 
   7   0   0   0   0   0   0   0   0   7   0   0   0   0   0   0   0   0   0   0   0   0   9   0   4   0   0   0   0   0   8   5 85 81 76 75 67 
   9   0   0   0   0   0   0   0   0   0   0   0   0   0   8   0   8   0   0   0   0   0   0   0   0   0   0   0   0  10   2   5 83 82 74 73 72 
   2   0   6   0   5   0   0  10   0   0   0   0   0   8   0   0   8   0   0   4   9   0   0   0   0   8   0   0   0   0   0   3 73 67 65 
   1   0   0   8   0   0   0   0   0   0   0   0   0   0   0   0   0   0   0   0   0   0   9   0   0   0   4   9   0   0   0   3 80 73 67 
   6   0   4   0   0   0   0   0   5   7   0   0   0   0   9   0   0   6   0   0   0   0   0   0   0   0   0   0   0   0   0   3 78 77 68 
   8   0   0   0   0   5   0   0   0   0   0   0   0   0   0   0   0   5   0   0   0   0   0   0   0   0   0   0   7   0   0   3 75 74 72 
   7   0   0   0   0   0   0   0   0   0   0   0   6   0   0   5   0   0   0   0   0   0   0   0   0   0   0   0   0   0   5   3 81 75 72 
   6   3   0   0   0   0   0   0   0  10   8   5   0   0   0   0  10   0   0   0   0   0   0   0   0   5   0   0   0   0   0   3 94 76 73 
   1   0   0   0   3   0   0   0   0   0   0   0   0   0   0   0   0   0   0   0   0   0   0   0   0   0   0   4   0   8   0   2 78 67 
   1   0   7   0   0   0   0   0   0   0   0   4   0   0   0   0   0   0   8   0   0   0   0   0   0   0   0   0   0   0   0   2 88 72 
  10   0   0   0   0   6   0   8   0   0   0   0   0   0   0   0   0   0   0   0   0   0   0   0   0   0   0   9   0   0   0   2 80 72 
   9   0   0   0   0   0   0   0   9   0   0   0   0   0   0   0   0   0   0   0   0   0   0   4   0   0   0   0   0   0   0   1 72 
   8   0   0   0   6   0   0   0   0   0   0   0   7   0   4   0   0   0   0   0   0   0   0   0   0   0   0   0   0   7   0   1 73 
   5   0   0   3   5   0   0  10   0   0   0   0   0   0   0   0   0   0   0   0   0   0   0   0   0   0   0   0   0   0   2   1 90 
   8  10   0   0   0   0   0   0   5   0   0   0   0   0   0   0   0   0   4   0   0   0   7   0   0   0   9   0   0   7   0   1 76 
   5   0   0   0   0   0   0   0   0   5   5   0   0   0   0   0   0   0   0   0   0   0   0   0   0   0   0   0   0   0   0   1 79 
   4   0   0   6   0   7   0   0   0   0   0   0   0   6   0   0   5   0   0   0   0   0   0   0   0   0   0   0   0   0   0   1 102
  10   0   0   0   0   0   7   4   3   6   3   0   0   0   0   0   0   0   0   8   0   0   0   0   4   0   0   0   0   0   0   1 102
   6   0   0   0   0   0   0   0   0   0   0   0   0   0   0   0   0   0   0   3   0   0   0   0   0   0   0   0   0   0   0   1 102
   5   0   0   0   0   0   0   6   0   0   0   0   0   0   0   0   0   0   0   0   0   0   0   0   0   0   0   0   0   0   0   1 102
   7   5   6   0   0   0   0   0   0   0   0   5   0   0   0   6   0   4   5   0   0   0   0   0   0   0   0   0   3   6   0   1 102
   2   9   0   0   0   0   0   0   7   0   0   9   0   0   0   0   0   0   0   0   0   0   0   0   0   0   0   0   0   4   0   1 102
   8   0   0   0   0   0   6   3   0   0   7   4   0   0   0   0   0   0   0   0   0   0   0   0   0   0   0   0   0   6   0   1 102
   4   0   0   0   0   0   0   4   0   0   0   0   0   0   0   0   0   9   0   0   0   0   0   0   8   0   0   0   0   0   0   1 102
   3   0   5   0   0   0   8   0   0   0   0   0   0   0   0   0   5   0   0   0   0   0   0   0   0   0   0   5   0   0   0   1 102
   2   0   0   0   0   0   0   0   0   0   0   0   0   0   0   0   0   0   0   0   0   0   3   0   0   7   0   6   0   0   0   1 102
   2   0   0   0   0   0   0   0   0   0   0   0   0   0   0   0   0   0   0   0   0   0   0   0   0   0   0   0   0   0   0   1 102
   1   0   0   0   0   0   0   0   0   0   0   0   0   9   0   0   0  10   4   0   0   0   0   0   4   0   0   0   0   0   0   1 102
   7   0   0   0   0   0   0   0   9   0   0   7   0   0   0   0   0   0   0   0   0   0   0   0   0   8   0   0   0   0   0   1 102
   4   7   0   5   0   0   0   9   0   0   0   0   0   0   0   0   0   0   0   0   3   0   0   0   0   0   0   6   0   0   0   1 102
   1   0   0   0   0   0   0   0   0   0   0   0   0   0   0   0   0   0   0   0   0  10   0   0   0   0   0   0   0   0   0   1 102
  10   0   0   4   0   0   0   3   0   7   0   8   0   0   0   0   0   0   0   0   0   0   0   0   0   0   0   0   0   5   9   1 102
   3   0   0   0   0   0   0   0   0   0   0   0   0   0   0   0   0   0   0   0   0   0   0   0   0   7   0   0   0   0   0   1 102
  10   4   0   7   0   0   0   0   5   0   0   0   0   0   0   0   0   0   0   8   0  10   0   0   0   0   0   0   8   0   0   1 102
   9   0   0   0   0   0   0   0   0   0   0   0   0   0   6   0   0   0   0   0   0   0   0   0   4   6   0   0   0   0   0   1 102
   2   0   0   0   0   0   0   0   0   8   0   0   0   0   0   0   0   0   0   0   0   0   0   0   6   0   4   0   0   0   0   1 102
   4   0   0   0   0   0   0   0   0   0   0   0   0   0   0   0   0   0   0   0   0   0   0   6   0   0   0   3   0   0   0   1 102
   4   0   0   0   0   0   0   0   0  10   0   0   0   0   0   0   0   0   0   0   0   0   0   0   0   0   0   0   5   0   8   1 102
   3   0   0   0   0   0   0   0   7   5   0   0   0   0   0   6   0   0   0   0   0   0   3   9   0   0   8   0   0   0   0   1 102
   8   0   0   0  10   0   0   0   0   0   0   0   0   0   0   0   0   0   0   0   0   0   0   8   0   0   0   0   0   0   0   1 102
   5   0   0   0   0   0   0   0   0   0   0   7   0   0   0   0   0   4   0   0   0   0   0   6   0   0   0   0   0   0   0   1 102
  10   0   9   0   0   0   8   0   0   0   0   0   0   7   0   0   0   0   0  10   0   0   0   0   0   0   0   0   0   0   0   1 102
   4   0   0   0   8   0   0   0   8   0   5   0   0   0   0   0   0   0   0   0   6   0   0   0   0   0   0   0   0   6   0   1 102
   3   0   0   5   0   0   0   0   0   0   0   0   0   0   0   0   0   4   0   0   3   0   0   0   0   0   0   7   0   0   0   1 102
   2   0   0   0   0   0   0   0   0   0   0   0   0   0   0   0   0   0   0   0   0   0   0   0   0   8   0   0   1   0   0   1 102
   3   0   0   0   0   0   4   9   8   0   0   0   3   0   0   0   0   0   0   0   0   0   0   0   0   0   0   0   3   0   0   1 102
   0   0   0   0   0   0   0   0   0   0   0   0   0   0   0   0   0   0   0   0   0   0   0   0   0   0   0   0   0   0   0   0 
